(set-logic ALL)
(declare-const input_number_VAR Int)
(assert (not (< input_number_VAR 0)))
(assert (< 1 input_number_VAR))
(assert (< 2 input_number_VAR))
(assert (< 3 input_number_VAR))
(assert (< 4 input_number_VAR))
(assert (< 5 input_number_VAR))
(assert (< 6 input_number_VAR))
(assert (< 7 input_number_VAR))
(assert (< 8 input_number_VAR))
(assert (< 9 input_number_VAR))
(assert (< 10 input_number_VAR))
(assert (< 11 input_number_VAR))
(assert (< 12 input_number_VAR))
(assert (< 13 input_number_VAR))
(assert (< 14 input_number_VAR))
(assert (< 15 input_number_VAR))
(assert (< 16 input_number_VAR))
(assert (< 17 input_number_VAR))
(assert (< 18 input_number_VAR))
(assert (< 19 input_number_VAR))
(assert (< 20 input_number_VAR))
(assert (< 21 input_number_VAR))
(assert (< 22 input_number_VAR))
(assert (< 23 input_number_VAR))
(assert (< 24 input_number_VAR))
(assert (< 25 input_number_VAR))
(assert (< 26 input_number_VAR))
(assert (< 27 input_number_VAR))
(assert (< 28 input_number_VAR))
(assert (< 29 input_number_VAR))
(assert (< 30 input_number_VAR))
(assert (< 31 input_number_VAR))
(assert (< 32 input_number_VAR))
(assert (< 33 input_number_VAR))
(assert (< 34 input_number_VAR))
(assert (< 35 input_number_VAR))
(assert (< 36 input_number_VAR))
(assert (< 37 input_number_VAR))
(assert (< 38 input_number_VAR))
(assert (< 39 input_number_VAR))
(assert (< 40 input_number_VAR))
(assert (< 41 input_number_VAR))
(assert (< 42 input_number_VAR))
(assert (< 43 input_number_VAR))
(assert (< 44 input_number_VAR))
(assert (< 45 input_number_VAR))
(assert (< 46 input_number_VAR))
(assert (< 47 input_number_VAR))
(assert (< 48 input_number_VAR))
(assert (< 49 input_number_VAR))
(assert (< 50 input_number_VAR))
(assert (< 51 input_number_VAR))
(assert (< 52 input_number_VAR))
(assert (< 53 input_number_VAR))
(assert (< 54 input_number_VAR))
(assert (< 55 input_number_VAR))
(assert (< 56 input_number_VAR))
(assert (< 57 input_number_VAR))
(assert (< 58 input_number_VAR))
(assert (< 59 input_number_VAR))
(assert (< 60 input_number_VAR))
(assert (< 61 input_number_VAR))
(assert (< 62 input_number_VAR))
(assert (< 63 input_number_VAR))
(assert (< 64 input_number_VAR))
(assert (< 65 input_number_VAR))
(assert (< 66 input_number_VAR))
(assert (< 67 input_number_VAR))
(assert (< 68 input_number_VAR))
(assert (< 69 input_number_VAR))
(assert (< 70 input_number_VAR))
(assert (< 71 input_number_VAR))
(assert (< 72 input_number_VAR))
(assert (< 73 input_number_VAR))
(assert (< 74 input_number_VAR))
(assert (< 75 input_number_VAR))
(assert (< 76 input_number_VAR))
(assert (< 77 input_number_VAR))
(assert (< 78 input_number_VAR))
(assert (< 79 input_number_VAR))
(assert (< 80 input_number_VAR))
(assert (< 81 input_number_VAR))
(assert (< 82 input_number_VAR))
(assert (< 83 input_number_VAR))
(assert (< 84 input_number_VAR))
(assert (< 85 input_number_VAR))
(assert (< 86 input_number_VAR))
(assert (< 87 input_number_VAR))
(assert (< 88 input_number_VAR))
(assert (< 89 input_number_VAR))
(assert (< 90 input_number_VAR))
(assert (< 91 input_number_VAR))
(assert (< 92 input_number_VAR))
(assert (< 93 input_number_VAR))
(assert (< 94 input_number_VAR))
(assert (< 95 input_number_VAR))
(assert (< 96 input_number_VAR))
(assert (< 97 input_number_VAR))
(assert (< 98 input_number_VAR))
(assert (< 99 input_number_VAR))
(assert (< 100 input_number_VAR))
(assert (< 101 input_number_VAR))
(assert (< 102 input_number_VAR))
(assert (< 103 input_number_VAR))
(assert (< 104 input_number_VAR))
(assert (< 105 input_number_VAR))
(assert (< 106 input_number_VAR))
(assert (< 107 input_number_VAR))
(assert (< 108 input_number_VAR))
(assert (< 109 input_number_VAR))
(assert (< 110 input_number_VAR))
(assert (< 111 input_number_VAR))
(assert (< 112 input_number_VAR))
(assert (< 113 input_number_VAR))
(assert (< 114 input_number_VAR))
(assert (< 115 input_number_VAR))
(assert (< 116 input_number_VAR))
(assert (< 117 input_number_VAR))
(assert (< 118 input_number_VAR))
(assert (< 119 input_number_VAR))
(assert (< 120 input_number_VAR))
(assert (< 121 input_number_VAR))
(assert (< 122 input_number_VAR))
(assert (< 123 input_number_VAR))
(assert (< 124 input_number_VAR))
(assert (< 125 input_number_VAR))
(assert (< 126 input_number_VAR))
(assert (< 127 input_number_VAR))
(assert (< 128 input_number_VAR))
(assert (< 129 input_number_VAR))
(assert (< 130 input_number_VAR))
(assert (< 131 input_number_VAR))
(assert (< 132 input_number_VAR))
(assert (< 133 input_number_VAR))
(assert (< 134 input_number_VAR))
(assert (< 135 input_number_VAR))
(assert (< 136 input_number_VAR))
(assert (< 137 input_number_VAR))
(assert (< 138 input_number_VAR))
(assert (< 139 input_number_VAR))
(assert (< 140 input_number_VAR))
(assert (< 141 input_number_VAR))
(assert (< 142 input_number_VAR))
(assert (< 143 input_number_VAR))
(assert (< 144 input_number_VAR))
(assert (< 145 input_number_VAR))
(assert (< 146 input_number_VAR))
(assert (< 147 input_number_VAR))
(assert (< 148 input_number_VAR))
(assert (< 149 input_number_VAR))
(assert (< 150 input_number_VAR))
(assert (< 151 input_number_VAR))
(assert (< 152 input_number_VAR))
(assert (< 153 input_number_VAR))
(assert (< 154 input_number_VAR))
(assert (< 155 input_number_VAR))
(assert (< 156 input_number_VAR))
(assert (< 157 input_number_VAR))
(assert (< 158 input_number_VAR))
(assert (< 159 input_number_VAR))
(assert (< 160 input_number_VAR))
(assert (< 161 input_number_VAR))
(assert (< 162 input_number_VAR))
(assert (< 163 input_number_VAR))
(assert (< 164 input_number_VAR))
(assert (< 165 input_number_VAR))
(assert (< 166 input_number_VAR))
(assert (< 167 input_number_VAR))
(assert (< 168 input_number_VAR))
(assert (< 169 input_number_VAR))
(assert (< 170 input_number_VAR))
(assert (< 171 input_number_VAR))
(assert (< 172 input_number_VAR))
(assert (< 173 input_number_VAR))
(assert (< 174 input_number_VAR))
(assert (< 175 input_number_VAR))
(assert (< 176 input_number_VAR))
(assert (< 177 input_number_VAR))
(assert (< 178 input_number_VAR))
(assert (< 179 input_number_VAR))
(assert (< 180 input_number_VAR))
(assert (< 181 input_number_VAR))
(assert (< 182 input_number_VAR))
(assert (< 183 input_number_VAR))
(assert (< 184 input_number_VAR))
(assert (< 185 input_number_VAR))
(assert (< 186 input_number_VAR))
(assert (< 187 input_number_VAR))
(assert (< 188 input_number_VAR))
(assert (< 189 input_number_VAR))
(assert (< 190 input_number_VAR))
(assert (< 191 input_number_VAR))
(assert (< 192 input_number_VAR))
(assert (< 193 input_number_VAR))
(assert (< 194 input_number_VAR))
(assert (< 195 input_number_VAR))
(assert (< 196 input_number_VAR))
(assert (< 197 input_number_VAR))
(assert (< 198 input_number_VAR))
(assert (< 199 input_number_VAR))
(assert (< 200 input_number_VAR))
(assert (< 201 input_number_VAR))
(assert (< 202 input_number_VAR))
(assert (< 203 input_number_VAR))
(assert (< 204 input_number_VAR))
(assert (< 205 input_number_VAR))
(assert (< 206 input_number_VAR))
(assert (< 207 input_number_VAR))
(assert (< 208 input_number_VAR))
(assert (< 209 input_number_VAR))
(assert (< 210 input_number_VAR))
(assert (< 211 input_number_VAR))
(assert (< 212 input_number_VAR))
(assert (< 213 input_number_VAR))
(assert (< 214 input_number_VAR))
(assert (< 215 input_number_VAR))
(assert (< 216 input_number_VAR))
(assert (< 217 input_number_VAR))
(assert (< 218 input_number_VAR))
(assert (< 219 input_number_VAR))
(assert (< 220 input_number_VAR))
(assert (< 221 input_number_VAR))
(assert (< 222 input_number_VAR))
(assert (< 223 input_number_VAR))
(assert (< 224 input_number_VAR))
(assert (< 225 input_number_VAR))
(assert (< 226 input_number_VAR))
(assert (< 227 input_number_VAR))
(assert (< 228 input_number_VAR))
(assert (< 229 input_number_VAR))
(assert (< 230 input_number_VAR))
(assert (< 231 input_number_VAR))
(assert (< 232 input_number_VAR))
(assert (< 233 input_number_VAR))
(assert (< 234 input_number_VAR))
(assert (< 235 input_number_VAR))
(assert (< 236 input_number_VAR))
(assert (< 237 input_number_VAR))
(assert (< 238 input_number_VAR))
(assert (< 239 input_number_VAR))
(assert (< 240 input_number_VAR))
(assert (< 241 input_number_VAR))
(assert (< 242 input_number_VAR))
(assert (< 243 input_number_VAR))
(assert (< 244 input_number_VAR))
(assert (< 245 input_number_VAR))
(assert (< 246 input_number_VAR))
(assert (< 247 input_number_VAR))
(assert (< 248 input_number_VAR))
(assert (< 249 input_number_VAR))
(assert (< 250 input_number_VAR))
(assert (< 251 input_number_VAR))
(assert (< 252 input_number_VAR))
(assert (< 253 input_number_VAR))
(assert (< 254 input_number_VAR))
(assert (< 255 input_number_VAR))
(assert (< 256 input_number_VAR))
(assert (< 257 input_number_VAR))
(assert (< 258 input_number_VAR))
(assert (< 259 input_number_VAR))
(assert (< 260 input_number_VAR))
(assert (< 261 input_number_VAR))
(assert (< 262 input_number_VAR))
(assert (< 263 input_number_VAR))
(assert (< 264 input_number_VAR))
(assert (< 265 input_number_VAR))
(assert (< 266 input_number_VAR))
(assert (< 267 input_number_VAR))
(assert (< 268 input_number_VAR))
(assert (< 269 input_number_VAR))
(assert (< 270 input_number_VAR))
(assert (< 271 input_number_VAR))
(assert (< 272 input_number_VAR))
(assert (< 273 input_number_VAR))
(assert (< 274 input_number_VAR))
(assert (< 275 input_number_VAR))
(assert (< 276 input_number_VAR))
(assert (< 277 input_number_VAR))
(assert (< 278 input_number_VAR))
(assert (< 279 input_number_VAR))
(assert (< 280 input_number_VAR))
(assert (< 281 input_number_VAR))
(assert (< 282 input_number_VAR))
(assert (< 283 input_number_VAR))
(assert (< 284 input_number_VAR))
(assert (< 285 input_number_VAR))
(assert (< 286 input_number_VAR))
(assert (< 287 input_number_VAR))
(assert (< 288 input_number_VAR))
(assert (< 289 input_number_VAR))
(assert (< 290 input_number_VAR))
(assert (< 291 input_number_VAR))
(assert (< 292 input_number_VAR))
(assert (< 293 input_number_VAR))
(assert (< 294 input_number_VAR))
(assert (< 295 input_number_VAR))
(assert (< 296 input_number_VAR))
(assert (< 297 input_number_VAR))
(assert (< 298 input_number_VAR))
(assert (< 299 input_number_VAR))
(assert (< 300 input_number_VAR))
(assert (< 301 input_number_VAR))
(assert (< 302 input_number_VAR))
(assert (< 303 input_number_VAR))
(assert (< 304 input_number_VAR))
(assert (< 305 input_number_VAR))
(assert (< 306 input_number_VAR))
(assert (< 307 input_number_VAR))
(assert (< 308 input_number_VAR))
(assert (< 309 input_number_VAR))
(assert (< 310 input_number_VAR))
(assert (< 311 input_number_VAR))
(assert (< 312 input_number_VAR))
(assert (< 313 input_number_VAR))
(assert (< 314 input_number_VAR))
(assert (< 315 input_number_VAR))
(assert (< 316 input_number_VAR))
(assert (< 317 input_number_VAR))
(assert (< 318 input_number_VAR))
(assert (< 319 input_number_VAR))
(assert (< 320 input_number_VAR))
(assert (< 321 input_number_VAR))
(assert (< 322 input_number_VAR))
(assert (< 323 input_number_VAR))
(assert (< 324 input_number_VAR))
(assert (< 325 input_number_VAR))
(assert (< 326 input_number_VAR))
(assert (< 327 input_number_VAR))
(assert (< 328 input_number_VAR))
(assert (< 329 input_number_VAR))
(assert (< 330 input_number_VAR))
(assert (< 331 input_number_VAR))
(assert (< 332 input_number_VAR))
(assert (< 333 input_number_VAR))
(assert (< 334 input_number_VAR))
(assert (< 335 input_number_VAR))
(assert (< 336 input_number_VAR))
(assert (< 337 input_number_VAR))
(assert (< 338 input_number_VAR))
(assert (< 339 input_number_VAR))
(assert (< 340 input_number_VAR))
(assert (< 341 input_number_VAR))
(assert (< 342 input_number_VAR))
(assert (< 343 input_number_VAR))
(assert (< 344 input_number_VAR))
(assert (< 345 input_number_VAR))
(assert (< 346 input_number_VAR))
(assert (< 347 input_number_VAR))
(assert (< 348 input_number_VAR))
(assert (< 349 input_number_VAR))
(assert (< 350 input_number_VAR))
(assert (< 351 input_number_VAR))
(assert (< 352 input_number_VAR))
(assert (< 353 input_number_VAR))
(assert (< 354 input_number_VAR))
(assert (< 355 input_number_VAR))
(assert (< 356 input_number_VAR))
(assert (< 357 input_number_VAR))
(assert (< 358 input_number_VAR))
(assert (< 359 input_number_VAR))
(assert (< 360 input_number_VAR))
(assert (< 361 input_number_VAR))
(assert (< 362 input_number_VAR))
(assert (< 363 input_number_VAR))
(assert (< 364 input_number_VAR))
(assert (< 365 input_number_VAR))
(assert (< 366 input_number_VAR))
(assert (< 367 input_number_VAR))
(assert (< 368 input_number_VAR))
(assert (< 369 input_number_VAR))
(assert (< 370 input_number_VAR))
(assert (< 371 input_number_VAR))
(assert (< 372 input_number_VAR))
(assert (< 373 input_number_VAR))
(assert (< 374 input_number_VAR))
(assert (< 375 input_number_VAR))
(assert (< 376 input_number_VAR))
(assert (< 377 input_number_VAR))
(assert (< 378 input_number_VAR))
(assert (< 379 input_number_VAR))
(assert (< 380 input_number_VAR))
(assert (< 381 input_number_VAR))
(assert (< 382 input_number_VAR))
(assert (< 383 input_number_VAR))
(assert (< 384 input_number_VAR))
(assert (< 385 input_number_VAR))
(assert (< 386 input_number_VAR))
(assert (< 387 input_number_VAR))
(assert (< 388 input_number_VAR))
(assert (< 389 input_number_VAR))
(assert (< 390 input_number_VAR))
(assert (< 391 input_number_VAR))
(assert (< 392 input_number_VAR))
(assert (< 393 input_number_VAR))
(assert (< 394 input_number_VAR))
(assert (< 395 input_number_VAR))
(assert (< 396 input_number_VAR))
(assert (< 397 input_number_VAR))
(assert (< 398 input_number_VAR))
(assert (< 399 input_number_VAR))
(assert (< 400 input_number_VAR))
(assert (< 401 input_number_VAR))
(assert (< 402 input_number_VAR))
(assert (< 403 input_number_VAR))
(assert (< 404 input_number_VAR))
(assert (< 405 input_number_VAR))
(assert (< 406 input_number_VAR))
(assert (< 407 input_number_VAR))
(assert (< 408 input_number_VAR))
(assert (< 409 input_number_VAR))
(assert (< 410 input_number_VAR))
(assert (< 411 input_number_VAR))
(assert (< 412 input_number_VAR))
(assert (< 413 input_number_VAR))
(assert (< 414 input_number_VAR))
(assert (< 415 input_number_VAR))
(assert (< 416 input_number_VAR))
(assert (< 417 input_number_VAR))
(assert (< 418 input_number_VAR))
(assert (< 419 input_number_VAR))
(assert (< 420 input_number_VAR))
(assert (< 421 input_number_VAR))
(assert (< 422 input_number_VAR))
(assert (< 423 input_number_VAR))
(assert (< 424 input_number_VAR))
(assert (< 425 input_number_VAR))
(assert (< 426 input_number_VAR))
(assert (< 427 input_number_VAR))
(assert (< 428 input_number_VAR))
(assert (< 429 input_number_VAR))
(assert (< 430 input_number_VAR))
(assert (< 431 input_number_VAR))
(assert (< 432 input_number_VAR))
(assert (< 433 input_number_VAR))
(assert (< 434 input_number_VAR))
(assert (< 435 input_number_VAR))
(assert (< 436 input_number_VAR))
(assert (< 437 input_number_VAR))
(assert (< 438 input_number_VAR))
(assert (< 439 input_number_VAR))
(assert (< 440 input_number_VAR))
(assert (< 441 input_number_VAR))
(assert (< 442 input_number_VAR))
(assert (< 443 input_number_VAR))
(assert (< 444 input_number_VAR))
(assert (< 445 input_number_VAR))
(assert (< 446 input_number_VAR))
(assert (< 447 input_number_VAR))
(assert (< 448 input_number_VAR))
(assert (< 449 input_number_VAR))
(assert (< 450 input_number_VAR))
(assert (< 451 input_number_VAR))
(assert (< 452 input_number_VAR))
(assert (< 453 input_number_VAR))
(assert (< 454 input_number_VAR))
(assert (< 455 input_number_VAR))
(assert (< 456 input_number_VAR))
(assert (< 457 input_number_VAR))
(assert (< 458 input_number_VAR))
(assert (< 459 input_number_VAR))
(assert (< 460 input_number_VAR))
(assert (< 461 input_number_VAR))
(assert (< 462 input_number_VAR))
(assert (< 463 input_number_VAR))
(assert (< 464 input_number_VAR))
(assert (< 465 input_number_VAR))
(assert (< 466 input_number_VAR))
(assert (< 467 input_number_VAR))
(assert (< 468 input_number_VAR))
(assert (< 469 input_number_VAR))
(assert (< 470 input_number_VAR))
(assert (< 471 input_number_VAR))
(assert (< 472 input_number_VAR))
(assert (< 473 input_number_VAR))
(assert (< 474 input_number_VAR))
(assert (< 475 input_number_VAR))
(assert (< 476 input_number_VAR))
(assert (< 477 input_number_VAR))
(assert (< 478 input_number_VAR))
(assert (< 479 input_number_VAR))
(assert (< 480 input_number_VAR))
(assert (< 481 input_number_VAR))
(assert (< 482 input_number_VAR))
(assert (< 483 input_number_VAR))
(assert (< 484 input_number_VAR))
(assert (< 485 input_number_VAR))
(assert (< 486 input_number_VAR))
(assert (< 487 input_number_VAR))
(assert (< 488 input_number_VAR))
(assert (< 489 input_number_VAR))
(assert (< 490 input_number_VAR))
(assert (< 491 input_number_VAR))
(assert (< 492 input_number_VAR))
(assert (< 493 input_number_VAR))
(assert (< 494 input_number_VAR))
(assert (< 495 input_number_VAR))
(assert (< 496 input_number_VAR))
(assert (< 497 input_number_VAR))
(assert (< 498 input_number_VAR))
(assert (< 499 input_number_VAR))
(assert (< 500 input_number_VAR))
(assert (< 501 input_number_VAR))
(assert (< 502 input_number_VAR))
(assert (< 503 input_number_VAR))
(assert (< 504 input_number_VAR))
(assert (< 505 input_number_VAR))
(assert (< 506 input_number_VAR))
(assert (< 507 input_number_VAR))
(assert (< 508 input_number_VAR))
(assert (< 509 input_number_VAR))
(assert (< 510 input_number_VAR))
(assert (< 511 input_number_VAR))
(assert (< 512 input_number_VAR))
(assert (< 513 input_number_VAR))
(assert (< 514 input_number_VAR))
(assert (< 515 input_number_VAR))
(assert (< 516 input_number_VAR))
(assert (< 517 input_number_VAR))
(assert (< 518 input_number_VAR))
(assert (< 519 input_number_VAR))
(assert (< 520 input_number_VAR))
(assert (< 521 input_number_VAR))
(assert (< 522 input_number_VAR))
(assert (< 523 input_number_VAR))
(assert (< 524 input_number_VAR))
(assert (< 525 input_number_VAR))
(assert (< 526 input_number_VAR))
(assert (< 527 input_number_VAR))
(assert (< 528 input_number_VAR))
(assert (< 529 input_number_VAR))
(assert (< 530 input_number_VAR))
(assert (< 531 input_number_VAR))
(assert (< 532 input_number_VAR))
(assert (< 533 input_number_VAR))
(assert (< 534 input_number_VAR))
(assert (< 535 input_number_VAR))
(assert (< 536 input_number_VAR))
(assert (< 537 input_number_VAR))
(assert (< 538 input_number_VAR))
(assert (< 539 input_number_VAR))
(assert (< 540 input_number_VAR))
(assert (< 541 input_number_VAR))
(assert (< 542 input_number_VAR))
(assert (< 543 input_number_VAR))
(assert (< 544 input_number_VAR))
(assert (< 545 input_number_VAR))
(assert (< 546 input_number_VAR))
(assert (< 547 input_number_VAR))
(assert (< 548 input_number_VAR))
(assert (< 549 input_number_VAR))
(assert (< 550 input_number_VAR))
(assert (< 551 input_number_VAR))
(assert (< 552 input_number_VAR))
(assert (< 553 input_number_VAR))
(assert (< 554 input_number_VAR))
(assert (< 555 input_number_VAR))
(assert (< 556 input_number_VAR))
(assert (< 557 input_number_VAR))
(assert (< 558 input_number_VAR))
(assert (< 559 input_number_VAR))
(assert (< 560 input_number_VAR))
(assert (< 561 input_number_VAR))
(assert (< 562 input_number_VAR))
(assert (< 563 input_number_VAR))
(assert (< 564 input_number_VAR))
(assert (< 565 input_number_VAR))
(assert (< 566 input_number_VAR))
(assert (< 567 input_number_VAR))
(assert (< 568 input_number_VAR))
(assert (< 569 input_number_VAR))
(assert (< 570 input_number_VAR))
(assert (< 571 input_number_VAR))
(assert (< 572 input_number_VAR))
(assert (< 573 input_number_VAR))
(assert (< 574 input_number_VAR))
(assert (< 575 input_number_VAR))
(assert (< 576 input_number_VAR))
(assert (< 577 input_number_VAR))
(assert (< 578 input_number_VAR))
(assert (< 579 input_number_VAR))
(assert (< 580 input_number_VAR))
(assert (< 581 input_number_VAR))
(assert (< 582 input_number_VAR))
(assert (< 583 input_number_VAR))
(assert (< 584 input_number_VAR))
(assert (< 585 input_number_VAR))
(assert (< 586 input_number_VAR))
(assert (< 587 input_number_VAR))
(assert (< 588 input_number_VAR))
(assert (< 589 input_number_VAR))
(assert (< 590 input_number_VAR))
(assert (< 591 input_number_VAR))
(assert (< 592 input_number_VAR))
(assert (< 593 input_number_VAR))
(assert (< 594 input_number_VAR))
(assert (< 595 input_number_VAR))
(assert (< 596 input_number_VAR))
(assert (< 597 input_number_VAR))
(assert (< 598 input_number_VAR))
(assert (< 599 input_number_VAR))
(assert (< 600 input_number_VAR))
(assert (< 601 input_number_VAR))
(assert (< 602 input_number_VAR))
(assert (< 603 input_number_VAR))
(assert (< 604 input_number_VAR))
(assert (< 605 input_number_VAR))
(assert (< 606 input_number_VAR))
(assert (< 607 input_number_VAR))
(assert (< 608 input_number_VAR))
(assert (< 609 input_number_VAR))
(assert (< 610 input_number_VAR))
(assert (< 611 input_number_VAR))
(assert (< 612 input_number_VAR))
(assert (< 613 input_number_VAR))
(assert (< 614 input_number_VAR))
(assert (< 615 input_number_VAR))
(assert (< 616 input_number_VAR))
(assert (< 617 input_number_VAR))
(assert (< 618 input_number_VAR))
(assert (< 619 input_number_VAR))
(assert (< 620 input_number_VAR))
(assert (< 621 input_number_VAR))
(assert (< 622 input_number_VAR))
(assert (< 623 input_number_VAR))
(assert (< 624 input_number_VAR))
(assert (< 625 input_number_VAR))
(assert (< 626 input_number_VAR))
(assert (< 627 input_number_VAR))
(assert (< 628 input_number_VAR))
(assert (< 629 input_number_VAR))
(assert (< 630 input_number_VAR))
(assert (< 631 input_number_VAR))
(assert (< 632 input_number_VAR))
(assert (< 633 input_number_VAR))
(assert (< 634 input_number_VAR))
(assert (< 635 input_number_VAR))
(assert (< 636 input_number_VAR))
(assert (< 637 input_number_VAR))
(assert (< 638 input_number_VAR))
(assert (< 639 input_number_VAR))
(assert (< 640 input_number_VAR))
(assert (< 641 input_number_VAR))
(assert (< 642 input_number_VAR))
(assert (< 643 input_number_VAR))
(assert (< 644 input_number_VAR))
(assert (< 645 input_number_VAR))
(assert (< 646 input_number_VAR))
(assert (< 647 input_number_VAR))
(assert (< 648 input_number_VAR))
(assert (< 649 input_number_VAR))
(assert (< 650 input_number_VAR))
(assert (< 651 input_number_VAR))
(assert (< 652 input_number_VAR))
(assert (< 653 input_number_VAR))
(assert (< 654 input_number_VAR))
(assert (< 655 input_number_VAR))
(assert (< 656 input_number_VAR))
(assert (< 657 input_number_VAR))
(assert (< 658 input_number_VAR))
(assert (< 659 input_number_VAR))
(assert (< 660 input_number_VAR))
(assert (< 661 input_number_VAR))
(assert (< 662 input_number_VAR))
(assert (< 663 input_number_VAR))
(assert (< 664 input_number_VAR))
(assert (< 665 input_number_VAR))
(assert (< 666 input_number_VAR))
(assert (< 667 input_number_VAR))
(assert (< 668 input_number_VAR))
(assert (< 669 input_number_VAR))
(assert (< 670 input_number_VAR))
(assert (< 671 input_number_VAR))
(assert (< 672 input_number_VAR))
(assert (< 673 input_number_VAR))
(assert (< 674 input_number_VAR))
(assert (< 675 input_number_VAR))
(assert (< 676 input_number_VAR))
(assert (< 677 input_number_VAR))
(assert (< 678 input_number_VAR))
(assert (< 679 input_number_VAR))
(assert (< 680 input_number_VAR))
(assert (< 681 input_number_VAR))
(assert (< 682 input_number_VAR))
(assert (< 683 input_number_VAR))
(assert (< 684 input_number_VAR))
(assert (< 685 input_number_VAR))
(assert (< 686 input_number_VAR))
(assert (< 687 input_number_VAR))
(assert (< 688 input_number_VAR))
(assert (< 689 input_number_VAR))
(assert (< 690 input_number_VAR))
(assert (< 691 input_number_VAR))
(assert (< 692 input_number_VAR))
(assert (< 693 input_number_VAR))
(assert (< 694 input_number_VAR))
(assert (< 695 input_number_VAR))
(assert (< 696 input_number_VAR))
(assert (< 697 input_number_VAR))
(assert (< 698 input_number_VAR))
(assert (< 699 input_number_VAR))
(assert (< 700 input_number_VAR))
(assert (< 701 input_number_VAR))
(assert (< 702 input_number_VAR))
(assert (< 703 input_number_VAR))
(assert (< 704 input_number_VAR))
(assert (< 705 input_number_VAR))
(assert (< 706 input_number_VAR))
(assert (< 707 input_number_VAR))
(assert (< 708 input_number_VAR))
(assert (< 709 input_number_VAR))
(assert (< 710 input_number_VAR))
(assert (< 711 input_number_VAR))
(assert (< 712 input_number_VAR))
(assert (< 713 input_number_VAR))
(assert (< 714 input_number_VAR))
(assert (< 715 input_number_VAR))
(assert (< 716 input_number_VAR))
(assert (< 717 input_number_VAR))
(assert (< 718 input_number_VAR))
(assert (< 719 input_number_VAR))
(assert (< 720 input_number_VAR))
(assert (< 721 input_number_VAR))
(assert (< 722 input_number_VAR))
(assert (< 723 input_number_VAR))
(assert (< 724 input_number_VAR))
(assert (< 725 input_number_VAR))
(assert (< 726 input_number_VAR))
(assert (< 727 input_number_VAR))
(assert (< 728 input_number_VAR))
(assert (< 729 input_number_VAR))
(assert (< 730 input_number_VAR))
(assert (< 731 input_number_VAR))
(assert (< 732 input_number_VAR))
(assert (< 733 input_number_VAR))
(assert (< 734 input_number_VAR))
(assert (< 735 input_number_VAR))
(assert (< 736 input_number_VAR))
(assert (< 737 input_number_VAR))
(assert (< 738 input_number_VAR))
(assert (< 739 input_number_VAR))
(assert (< 740 input_number_VAR))
(assert (< 741 input_number_VAR))
(assert (< 742 input_number_VAR))
(assert (< 743 input_number_VAR))
(assert (< 744 input_number_VAR))
(assert (< 745 input_number_VAR))
(assert (< 746 input_number_VAR))
(assert (< 747 input_number_VAR))
(assert (< 748 input_number_VAR))
(assert (< 749 input_number_VAR))
(assert (< 750 input_number_VAR))
(assert (< 751 input_number_VAR))
(assert (< 752 input_number_VAR))
(assert (< 753 input_number_VAR))
(assert (< 754 input_number_VAR))
(assert (< 755 input_number_VAR))
(assert (< 756 input_number_VAR))
(assert (< 757 input_number_VAR))
(assert (< 758 input_number_VAR))
(assert (< 759 input_number_VAR))
(assert (< 760 input_number_VAR))
(assert (< 761 input_number_VAR))
(assert (< 762 input_number_VAR))
(assert (< 763 input_number_VAR))
(assert (< 764 input_number_VAR))
(assert (< 765 input_number_VAR))
(assert (< 766 input_number_VAR))
(assert (< 767 input_number_VAR))
(assert (< 768 input_number_VAR))
(assert (< 769 input_number_VAR))
(assert (< 770 input_number_VAR))
(assert (< 771 input_number_VAR))
(assert (< 772 input_number_VAR))
(assert (< 773 input_number_VAR))
(assert (< 774 input_number_VAR))
(assert (< 775 input_number_VAR))
(assert (< 776 input_number_VAR))
(assert (< 777 input_number_VAR))
(assert (< 778 input_number_VAR))
(assert (< 779 input_number_VAR))
(assert (< 780 input_number_VAR))
(assert (< 781 input_number_VAR))
(assert (< 782 input_number_VAR))
(assert (< 783 input_number_VAR))
(assert (< 784 input_number_VAR))
(assert (< 785 input_number_VAR))
(assert (< 786 input_number_VAR))
(assert (< 787 input_number_VAR))
(assert (< 788 input_number_VAR))
(assert (< 789 input_number_VAR))
(assert (< 790 input_number_VAR))
(assert (< 791 input_number_VAR))
(assert (< 792 input_number_VAR))
(assert (< 793 input_number_VAR))
(assert (< 794 input_number_VAR))
(assert (< 795 input_number_VAR))
(assert (< 796 input_number_VAR))
(assert (< 797 input_number_VAR))
(assert (< 798 input_number_VAR))
(assert (< 799 input_number_VAR))
(assert (< 800 input_number_VAR))
(assert (< 801 input_number_VAR))
(assert (< 802 input_number_VAR))
(assert (< 803 input_number_VAR))
(assert (< 804 input_number_VAR))
(assert (< 805 input_number_VAR))
(assert (< 806 input_number_VAR))
(assert (< 807 input_number_VAR))
(assert (< 808 input_number_VAR))
(assert (< 809 input_number_VAR))
(assert (< 810 input_number_VAR))
(assert (< 811 input_number_VAR))
(assert (< 812 input_number_VAR))
(assert (< 813 input_number_VAR))
(assert (< 814 input_number_VAR))
(assert (< 815 input_number_VAR))
(assert (< 816 input_number_VAR))
(assert (< 817 input_number_VAR))
(assert (< 818 input_number_VAR))
(assert (< 819 input_number_VAR))
(assert (< 820 input_number_VAR))
(assert (< 821 input_number_VAR))
(assert (< 822 input_number_VAR))
(assert (< 823 input_number_VAR))
(assert (< 824 input_number_VAR))
(assert (< 825 input_number_VAR))
(assert (< 826 input_number_VAR))
(assert (< 827 input_number_VAR))
(assert (< 828 input_number_VAR))
(assert (< 829 input_number_VAR))
(assert (< 830 input_number_VAR))
(assert (< 831 input_number_VAR))
(assert (< 832 input_number_VAR))
(assert (< 833 input_number_VAR))
(assert (< 834 input_number_VAR))
(assert (< 835 input_number_VAR))
(assert (< 836 input_number_VAR))
(assert (< 837 input_number_VAR))
(assert (< 838 input_number_VAR))
(assert (< 839 input_number_VAR))
(assert (< 840 input_number_VAR))
(assert (< 841 input_number_VAR))
(assert (< 842 input_number_VAR))
(assert (< 843 input_number_VAR))
(assert (< 844 input_number_VAR))
(assert (< 845 input_number_VAR))
(assert (< 846 input_number_VAR))
(assert (< 847 input_number_VAR))
(assert (< 848 input_number_VAR))
(assert (< 849 input_number_VAR))
(assert (< 850 input_number_VAR))
(assert (< 851 input_number_VAR))
(assert (< 852 input_number_VAR))
(assert (< 853 input_number_VAR))
(assert (< 854 input_number_VAR))
(assert (< 855 input_number_VAR))
(assert (< 856 input_number_VAR))
(assert (< 857 input_number_VAR))
(assert (< 858 input_number_VAR))
(assert (< 859 input_number_VAR))
(assert (< 860 input_number_VAR))
(assert (< 861 input_number_VAR))
(assert (< 862 input_number_VAR))
(assert (< 863 input_number_VAR))
(assert (< 864 input_number_VAR))
(assert (< 865 input_number_VAR))
(assert (< 866 input_number_VAR))
(assert (< 867 input_number_VAR))
(assert (< 868 input_number_VAR))
(assert (< 869 input_number_VAR))
(assert (< 870 input_number_VAR))
(assert (< 871 input_number_VAR))
(assert (< 872 input_number_VAR))
(assert (< 873 input_number_VAR))
(assert (< 874 input_number_VAR))
(assert (< 875 input_number_VAR))
(assert (< 876 input_number_VAR))
(assert (< 877 input_number_VAR))
(assert (< 878 input_number_VAR))
(assert (< 879 input_number_VAR))
(assert (< 880 input_number_VAR))
(assert (< 881 input_number_VAR))
(assert (< 882 input_number_VAR))
(assert (< 883 input_number_VAR))
(assert (< 884 input_number_VAR))
(assert (< 885 input_number_VAR))
(assert (< 886 input_number_VAR))
(assert (< 887 input_number_VAR))
(assert (< 888 input_number_VAR))
(assert (< 889 input_number_VAR))
(assert (< 890 input_number_VAR))
(assert (< 891 input_number_VAR))
(assert (< 892 input_number_VAR))
(assert (< 893 input_number_VAR))
(assert (< 894 input_number_VAR))
(assert (< 895 input_number_VAR))
(assert (< 896 input_number_VAR))
(assert (< 897 input_number_VAR))
(assert (< 898 input_number_VAR))
(assert (< 899 input_number_VAR))
(assert (< 900 input_number_VAR))
(assert (< 901 input_number_VAR))
(assert (< 902 input_number_VAR))
(assert (< 903 input_number_VAR))
(assert (< 904 input_number_VAR))
(assert (< 905 input_number_VAR))
(assert (< 906 input_number_VAR))
(assert (< 907 input_number_VAR))
(assert (< 908 input_number_VAR))
(assert (< 909 input_number_VAR))
(assert (< 910 input_number_VAR))
(assert (< 911 input_number_VAR))
(assert (< 912 input_number_VAR))
(assert (< 913 input_number_VAR))
(assert (< 914 input_number_VAR))
(assert (< 915 input_number_VAR))
(assert (< 916 input_number_VAR))
(assert (< 917 input_number_VAR))
(assert (< 918 input_number_VAR))
(assert (< 919 input_number_VAR))
(assert (< 920 input_number_VAR))
(check-sat)
(get-value (input_number_VAR))
